NAME : X-n322-k28
COMMENT : "Generated by Uchoa, Pecin, Pessoa, Poggi, Subramanian, and Vidal (2013)"
TYPE : CVRP
DIMENSION : 322
EDGE_WEIGHT_TYPE : EUC_2D
EDGE_WEIGHT_FORMAT : 
CAPACITY : 868
DISTANCE : 1.79769e+308
SERVICE_TIME : 0
NODE_COORD_SECTION
1 500 500
2 737 450
3 235 789
4 340 234
5 346 320
6 406 309
7 556 636
8 872 923
9 937 83
10 9 321
11 558 18
12 63 833
13 250 509
14 143 192
15 624 286
16 364 117
17 332 953
18 235 142
19 590 430
20 303 692
21 936 665
22 39 410
23 247 581
24 986 739
25 11 283
26 138 747
27 837 511
28 596 206
29 218 339
30 443 922
31 555 133
32 896 306
33 415 752
34 691 216
35 51 0
36 726 19
37 166 333
38 951 932
39 928 807
40 505 590
41 236 284
42 115 882
43 238 887
44 729 26
45 94 697
46 409 899
47 993 715
48 473 607
49 414 55
50 884 327
51 651 407
52 891 372
53 570 733
54 919 529
55 629 220
56 711 630
57 141 492
58 720 382
59 794 51
60 745 451
61 409 990
62 825 781
63 966 938
64 378 175
65 859 269
66 596 131
67 419 557
68 77 908
69 679 268
70 726 860
71 382 728
72 885 15
73 258 313
74 734 905
75 533 912
76 924 636
77 694 621
78 469 223
79 507 707
80 892 168
81 281 800
82 607 285
83 388 354
84 568 781
85 22 348
86 153 579
87 218 236
88 308 904
89 119 154
90 939 105
91 489 374
92 547 736
93 480 1000
94 124 883
95 647 930
96 295 741
97 213 53
98 701 446
99 589 708
100 644 147
101 133 377
102 983 343
103 169 651
104 262 450
105 255 422
106 115 640
107 693 344
108 896 910
109 298 531
110 573 416
111 416 512
112 870 50
113 185 436
114 656 268
115 53 522
116 587 165
117 542 762
118 995 809
119 266 878
120 27 812
121 196 522
122 45 164
123 174 729
124 252 311
125 681 621
126 594 478
127 848 361
128 897 253
129 729 354
130 255 410
131 811 703
132 677 991
133 781 909
134 971 632
135 540 824
136 887 144
137 475 860
138 509 336
139 967 433
140 897 98
141 157 676
142 971 727
143 972 381
144 658 504
145 375 214
146 280 526
147 895 158
148 196 779
149 379 223
150 692 470
151 22 395
152 119 604
153 622 843
154 289 811
155 98 365
156 111 426
157 261 101
158 483 818
159 820 480
160 433 961
161 656 421
162 511 273
163 334 794
164 426 686
165 870 112
166 941 978
167 744 498
168 7 346
169 168 877
170 166 244
171 604 430
172 176 452
173 522 306
174 912 406
175 423 564
176 505 779
177 101 383
178 729 307
179 162 515
180 647 869
181 784 983
182 496 811
183 736 39
184 833 529
185 646 367
186 922 294
187 513 535
188 373 331
189 471 694
190 39 149
191 813 538
192 153 115
193 244 505
194 716 286
195 409 228
196 140 484
197 652 239
198 141 628
199 30 924
200 877 307
201 586 723
202 336 615
203 856 584
204 984 221
205 641 671
206 648 704
207 19 309
208 661 125
209 614 194
210 253 864
211 106 841
212 187 687
213 5 289
214 657 83
215 658 58
216 419 839
217 519 347
218 191 864
219 666 486
220 288 276
221 562 646
222 516 725
223 75 785
224 309 966
225 743 856
226 121 698
227 286 258
228 70 635
229 376 539
230 824 834
231 650 350
232 742 277
233 977 647
234 268 698
235 973 145
236 569 655
237 765 22
238 427 869
239 11 869
240 377 793
241 162 897
242 102 444
243 979 386
244 69 483
245 294 395
246 424 536
247 37 705
248 126 782
249 490 30
250 348 771
251 808 469
252 107 512
253 782 207
254 161 793
255 859 469
256 148 763
257 403 723
258 978 760
259 214 132
260 467 387
261 292 262
262 238 846
263 853 27
264 855 506
265 591 902
266 213 742
267 203 364
268 183 3
269 143 608
270 501 152
271 649 492
272 904 31
273 997 741
274 527 299
275 26 402
276 543 506
277 902 548
278 47 419
279 125 226
280 206 608
281 811 668
282 643 265
283 189 736
284 79 287
285 382 630
286 225 604
287 412 843
288 924 756
289 474 356
290 533 721
291 445 101
292 579 994
293 652 658
294 633 914
295 889 206
296 464 243
297 680 735
298 420 998
299 798 490
300 75 518
301 27 680
302 118 804
303 181 428
304 489 91
305 367 977
306 777 679
307 501 137
308 856 6
309 75 999
310 777 984
311 171 874
312 909 569
313 730 509
314 326 596
315 59 533
316 455 853
317 612 163
318 959 409
319 987 154
320 883 195
321 207 6
322 39 831
PICKUP_AND_DELIVERY_SECTION
1 0 0 0 0 0 0
2 0 0 0 0 0 61
3 0 0 0 0 0 71
4 0 0 0 0 0 83
5 0 0 0 0 85 0
6 0 0 0 0 0 85
7 0 0 0 0 0 99
8 0 0 0 0 0 63
9 0 0 0 0 64 0
10 0 0 0 0 0 50
11 0 0 0 0 0 56
12 0 0 0 0 0 91
13 0 0 0 0 87 0
14 0 0 0 0 0 75
15 0 0 0 0 0 70
16 0 0 0 0 0 57
17 0 0 0 0 86 0
18 0 0 0 0 0 50
19 0 0 0 0 0 89
20 0 0 0 0 0 75
21 0 0 0 0 72 0
22 0 0 0 0 0 83
23 0 0 0 0 0 74
24 0 0 0 0 0 76
25 0 0 0 0 53 0
26 0 0 0 0 0 93
27 0 0 0 0 0 97
28 0 0 0 0 0 69
29 0 0 0 0 61 0
30 0 0 0 0 0 76
31 0 0 0 0 0 93
32 0 0 0 0 0 55
33 0 0 0 0 92 0
34 0 0 0 0 0 83
35 0 0 0 0 0 92
36 0 0 0 0 0 63
37 0 0 0 0 61 0
38 0 0 0 0 0 53
39 0 0 0 0 0 100
40 0 0 0 0 0 94
41 0 0 0 0 74 0
42 0 0 0 0 0 71
43 0 0 0 0 0 95
44 0 0 0 0 0 74
45 0 0 0 0 96 0
46 0 0 0 0 0 75
47 0 0 0 0 0 91
48 0 0 0 0 0 82
49 0 0 0 0 50 0
50 0 0 0 0 0 84
51 0 0 0 0 0 55
52 0 0 0 0 0 74
53 0 0 0 0 73 0
54 0 0 0 0 0 86
55 0 0 0 0 0 52
56 0 0 0 0 0 81
57 0 0 0 0 73 0
58 0 0 0 0 0 92
59 0 0 0 0 0 83
60 0 0 0 0 0 64
61 0 0 0 0 66 0
62 0 0 0 0 0 93
63 0 0 0 0 0 97
64 0 0 0 0 0 88
65 0 0 0 0 67 0
66 0 0 0 0 0 91
67 0 0 0 0 0 66
68 0 0 0 0 0 98
69 0 0 0 0 88 0
70 0 0 0 0 0 85
71 0 0 0 0 0 73
72 0 0 0 0 0 68
73 0 0 0 0 60 0
74 0 0 0 0 0 73
75 0 0 0 0 0 53
76 0 0 0 0 0 58
77 0 0 0 0 62 0
78 0 0 0 0 0 64
79 0 0 0 0 0 57
80 0 0 0 0 0 81
81 0 0 0 0 57 0
82 0 0 0 0 0 54
83 0 0 0 0 0 73
84 0 0 0 0 0 85
85 0 0 0 0 52 0
86 0 0 0 0 0 65
87 0 0 0 0 0 64
88 0 0 0 0 0 100
89 0 0 0 0 60 0
90 0 0 0 0 0 97
91 0 0 0 0 0 62
92 0 0 0 0 0 92
93 0 0 0 0 84 0
94 0 0 0 0 0 86
95 0 0 0 0 0 81
96 0 0 0 0 0 88
97 0 0 0 0 50 0
98 0 0 0 0 0 87
99 0 0 0 0 0 89
100 0 0 0 0 0 50
101 0 0 0 0 72 0
102 0 0 0 0 0 56
103 0 0 0 0 0 90
104 0 0 0 0 0 78
105 0 0 0 0 57 0
106 0 0 0 0 0 56
107 0 0 0 0 0 77
108 0 0 0 0 0 59
109 0 0 0 0 95 0
110 0 0 0 0 0 68
111 0 0 0 0 0 91
112 0 0 0 0 0 93
113 0 0 0 0 89 0
114 0 0 0 0 0 63
115 0 0 0 0 0 87
116 0 0 0 0 0 71
117 0 0 0 0 68 0
118 0 0 0 0 0 99
119 0 0 0 0 0 78
120 0 0 0 0 0 72
121 0 0 0 0 100 0
122 0 0 0 0 0 60
123 0 0 0 0 0 80
124 0 0 0 0 0 68
125 0 0 0 0 71 0
126 0 0 0 0 0 83
127 0 0 0 0 0 68
128 0 0 0 0 0 96
129 0 0 0 0 75 0
130 0 0 0 0 0 72
131 0 0 0 0 0 53
132 0 0 0 0 0 86
133 0 0 0 0 71 0
134 0 0 0 0 0 95
135 0 0 0 0 0 69
136 0 0 0 0 0 60
137 0 0 0 0 98 0
138 0 0 0 0 0 75
139 0 0 0 0 0 62
140 0 0 0 0 0 89
141 0 0 0 0 50 0
142 0 0 0 0 0 64
143 0 0 0 0 0 60
144 0 0 0 0 0 56
145 0 0 0 0 77 0
146 0 0 0 0 0 63
147 0 0 0 0 0 91
148 0 0 0 0 0 97
149 0 0 0 0 78 0
150 0 0 0 0 0 60
151 0 0 0 0 0 65
152 0 0 0 0 0 87
153 0 0 0 0 73 0
154 0 0 0 0 0 83
155 0 0 0 0 0 81
156 0 0 0 0 0 55
157 0 0 0 0 85 0
158 0 0 0 0 0 59
159 0 0 0 0 0 77
160 0 0 0 0 0 99
161 0 0 0 0 73 0
162 0 0 0 0 0 100
163 0 0 0 0 0 58
164 0 0 0 0 0 67
165 0 0 0 0 94 0
166 0 0 0 0 0 75
167 0 0 0 0 0 82
168 0 0 0 0 0 55
169 0 0 0 0 63 0
170 0 0 0 0 0 78
171 0 0 0 0 0 53
172 0 0 0 0 0 62
173 0 0 0 0 88 0
174 0 0 0 0 0 79
175 0 0 0 0 0 88
176 0 0 0 0 0 60
177 0 0 0 0 55 0
178 0 0 0 0 0 55
179 0 0 0 0 0 81
180 0 0 0 0 0 75
181 0 0 0 0 90 0
182 0 0 0 0 0 79
183 0 0 0 0 0 97
184 0 0 0 0 0 84
185 0 0 0 0 64 0
186 0 0 0 0 0 66
187 0 0 0 0 0 61
188 0 0 0 0 0 68
189 0 0 0 0 85 0
190 0 0 0 0 0 94
191 0 0 0 0 0 78
192 0 0 0 0 0 88
193 0 0 0 0 78 0
194 0 0 0 0 0 69
195 0 0 0 0 0 97
196 0 0 0 0 0 59
197 0 0 0 0 97 0
198 0 0 0 0 0 76
199 0 0 0 0 0 99
200 0 0 0 0 0 51
201 0 0 0 0 87 0
202 0 0 0 0 0 68
203 0 0 0 0 0 97
204 0 0 0 0 0 94
205 0 0 0 0 64 0
206 0 0 0 0 0 89
207 0 0 0 0 0 93
208 0 0 0 0 0 94
209 0 0 0 0 57 0
210 0 0 0 0 0 91
211 0 0 0 0 0 53
212 0 0 0 0 0 71
213 0 0 0 0 61 0
214 0 0 0 0 0 81
215 0 0 0 0 0 91
216 0 0 0 0 0 51
217 0 0 0 0 54 0
218 0 0 0 0 0 63
219 0 0 0 0 0 65
220 0 0 0 0 0 71
221 0 0 0 0 77 0
222 0 0 0 0 0 60
223 0 0 0 0 0 92
224 0 0 0 0 0 51
225 0 0 0 0 72 0
226 0 0 0 0 0 84
227 0 0 0 0 0 64
228 0 0 0 0 0 76
229 0 0 0 0 89 0
230 0 0 0 0 0 72
231 0 0 0 0 0 89
232 0 0 0 0 0 88
233 0 0 0 0 52 0
234 0 0 0 0 0 97
235 0 0 0 0 0 86
236 0 0 0 0 0 97
237 0 0 0 0 88 0
238 0 0 0 0 0 69
239 0 0 0 0 0 96
240 0 0 0 0 0 97
241 0 0 0 0 64 0
242 0 0 0 0 0 72
243 0 0 0 0 0 52
244 0 0 0 0 0 100
245 0 0 0 0 50 0
246 0 0 0 0 0 92
247 0 0 0 0 0 70
248 0 0 0 0 0 79
249 0 0 0 0 78 0
250 0 0 0 0 0 74
251 0 0 0 0 0 90
252 0 0 0 0 0 78
253 0 0 0 0 71 0
254 0 0 0 0 0 88
255 0 0 0 0 0 89
256 0 0 0 0 0 78
257 0 0 0 0 89 0
258 0 0 0 0 0 94
259 0 0 0 0 0 56
260 0 0 0 0 0 81
261 0 0 0 0 78 0
262 0 0 0 0 0 92
263 0 0 0 0 0 74
264 0 0 0 0 0 54
265 0 0 0 0 92 0
266 0 0 0 0 0 65
267 0 0 0 0 0 68
268 0 0 0 0 0 86
269 0 0 0 0 65 0
270 0 0 0 0 0 99
271 0 0 0 0 0 67
272 0 0 0 0 0 57
273 0 0 0 0 60 0
274 0 0 0 0 0 100
275 0 0 0 0 0 74
276 0 0 0 0 0 73
277 0 0 0 0 65 0
278 0 0 0 0 0 89
279 0 0 0 0 0 53
280 0 0 0 0 0 55
281 0 0 0 0 67 0
282 0 0 0 0 0 51
283 0 0 0 0 0 78
284 0 0 0 0 0 53
285 0 0 0 0 73 0
286 0 0 0 0 0 50
287 0 0 0 0 0 89
288 0 0 0 0 0 57
289 0 0 0 0 59 0
290 0 0 0 0 0 51
291 0 0 0 0 0 68
292 0 0 0 0 0 90
293 0 0 0 0 71 0
294 0 0 0 0 0 60
295 0 0 0 0 0 73
296 0 0 0 0 0 89
297 0 0 0 0 88 0
298 0 0 0 0 0 76
299 0 0 0 0 0 88
300 0 0 0 0 0 75
301 0 0 0 0 56 0
302 0 0 0 0 0 52
303 0 0 0 0 0 76
304 0 0 0 0 0 65
305 0 0 0 0 78 0
306 0 0 0 0 0 75
307 0 0 0 0 0 63
308 0 0 0 0 0 56
309 0 0 0 0 64 0
310 0 0 0 0 0 98
311 0 0 0 0 0 61
312 0 0 0 0 0 70
313 0 0 0 0 54 0
314 0 0 0 0 0 96
315 0 0 0 0 0 77
316 0 0 0 0 0 59
317 0 0 0 0 92 0
318 0 0 0 0 0 77
319 0 0 0 0 0 63
320 0 0 0 0 0 79
321 0 0 0 0 69 0
322 0 0 0 0 0 58
